benchmarks_CP/INST_49x49/50/inst49x49_50_52.dzn
S=7;
start=[|
-1,	32,	-1,	-1,	4,	33,	-1,	-1,	-1,	45,	-1,	43,	-1,	-1,	48,	35,	38,	-1,	22,	-1,	37,	9,	-1,	14,	2,	25,	-1,	-1,	-1,	12,	-1,	-1,	24,	-1,	11,	-1,	-1,	3,	-1,	-1,	18,	-1,	-1,	-1,	29,	-1,	26,	-1,	-1|
24,	36,	-1,	22,	28,	39,	18,	-1,	-1,	-1,	48,	-1,	-1,	-1,	-1,	-1,	30,	34,	31,	26,	-1,	-1,	41,	13,	-1,	37,	46,	-1,	23,	-1,	-1,	-1,	-1,	25,	-1,	11,	2,	-1,	-1,	5,	-1,	-1,	-1,	-1,	3,	-1,	33,	-1,	19|
1,	31,	16,	9,	20,	-1,	12,	35,	-1,	-1,	11,	-1,	37,	-1,	-1,	-1,	-1,	-1,	19,	41,	44,	-1,	21,	10,	7,	-1,	-1,	26,	6,	3,	-1,	-1,	5,	-1,	33,	-1,	13,	27,	43,	48,	42,	-1,	-1,	-1,	34,	-1,	23,	25,	39|
-1,	-1,	43,	-1,	-1,	-1,	-1,	-1,	8,	30,	-1,	-1,	-1,	-1,	-1,	16,	-1,	47,	-1,	14,	-1,	35,	-1,	-1,	42,	3,	34,	-1,	-1,	31,	28,	-1,	-1,	32,	-1,	-1,	-1,	38,	-1,	-1,	-1,	-1,	-1,	21,	11,	41,	-1,	-1,	6|
-1,	-1,	14,	37,	13,	26,	-1,	38,	20,	-1,	-1,	17,	18,	-1,	-1,	33,	2,	-1,	-1,	-1,	49,	1,	48,	45,	30,	32,	24,	-1,	-1,	44,	-1,	-1,	-1,	-1,	21,	35,	16,	-1,	-1,	-1,	47,	-1,	-1,	28,	27,	-1,	-1,	5,	9|
-1,	25,	27,	44,	35,	47,	-1,	-1,	39,	6,	26,	-1,	-1,	-1,	-1,	21,	43,	11,	-1,	-1,	-1,	-1,	-1,	22,	-1,	-1,	4,	-1,	-1,	-1,	36,	-1,	-1,	18,	2,	-1,	-1,	9,	7,	45,	31,	-1,	17,	42,	-1,	13,	-1,	32,	-1|
-1,	-1,	38,	-1,	42,	-1,	-1,	47,	-1,	-1,	-1,	-1,	40,	31,	9,	-1,	-1,	4,	6,	17,	13,	-1,	-1,	11,	-1,	-1,	36,	-1,	-1,	48,	30,	20,	34,	-1,	-1,	22,	-1,	26,	-1,	-1,	32,	-1,	-1,	16,	8,	-1,	14,	2,	-1|
-1,	-1,	-1,	-1,	12,	13,	-1,	6,	16,	-1,	5,	30,	1,	49,	-1,	-1,	14,	36,	44,	-1,	-1,	-1,	-1,	26,	-1,	29,	-1,	7,	-1,	39,	8,	22,	41,	-1,	23,	-1,	46,	-1,	-1,	11,	-1,	-1,	-1,	37,	-1,	25,	3,	35,	-1|
44,	24,	-1,	46,	-1,	-1,	36,	9,	43,	-1,	4,	-1,	-1,	29,	38,	-1,	8,	6,	34,	-1,	-1,	49,	-1,	-1,	41,	-1,	-1,	-1,	-1,	2,	-1,	42,	17,	30,	14,	25,	-1,	10,	-1,	-1,	22,	7,	-1,	40,	-1,	11,	21,	-1,	-1|
-1,	-1,	-1,	-1,	27,	-1,	-1,	17,	-1,	12,	23,	-1,	32,	-1,	-1,	20,	48,	37,	-1,	-1,	45,	-1,	8,	-1,	-1,	-1,	43,	25,	40,	-1,	16,	11,	-1,	-1,	-1,	42,	-1,	34,	-1,	-1,	38,	9,	-1,	24,	-1,	6,	49,	-1,	-1|
-1,	42,	41,	16,	32,	11,	-1,	-1,	-1,	31,	37,	-1,	35,	18,	26,	-1,	-1,	-1,	23,	-1,	-1,	-1,	36,	38,	24,	-1,	-1,	-1,	-1,	-1,	-1,	-1,	-1,	45,	-1,	27,	12,	-1,	-1,	-1,	-1,	-1,	9,	43,	14,	30,	29,	39,	-1|
-1,	-1,	-1,	25,	43,	3,	-1,	46,	22,	11,	28,	-1,	45,	24,	42,	-1,	-1,	-1,	32,	29,	-1,	-1,	-1,	-1,	1,	-1,	13,	10,	48,	15,	-1,	-1,	-1,	12,	-1,	5,	-1,	49,	-1,	17,	14,	40,	-1,	4,	20,	-1,	36,	-1,	-1|
-1,	-1,	7,	-1,	18,	-1,	-1,	-1,	40,	-1,	47,	-1,	42,	-1,	-1,	43,	-1,	19,	-1,	-1,	25,	3,	11,	-1,	-1,	-1,	-1,	-1,	49,	-1,	-1,	-1,	26,	9,	37,	23,	6,	35,	16,	-1,	29,	28,	13,	44,	31,	38,	-1,	-1,	33|
-1,	22,	-1,	28,	-1,	49,	35,	26,	-1,	-1,	20,	-1,	19,	-1,	-1,	47,	11,	-1,	-1,	3,	-1,	-1,	32,	-1,	23,	46,	37,	40,	-1,	-1,	7,	-1,	-1,	24,	5,	-1,	-1,	30,	41,	-1,	-1,	15,	1,	17,	16,	-1,	42,	48,	8|
-1,	-1,	9,	-1,	-1,	44,	-1,	10,	-1,	8,	32,	6,	38,	25,	-1,	34,	-1,	20,	5,	40,	-1,	-1,	3,	49,	12,	-1,	11,	18,	47,	42,	17,	-1,	-1,	13,	39,	33,	14,	-1,	46,	23,	-1,	45,	19,	1,	36,	-1,	-1,	-1,	-1|
-1,	4,	-1,	-1,	-1,	-1,	43,	40,	26,	7,	-1,	-1,	-1,	22,	-1,	-1,	-1,	14,	3,	21,	42,	-1,	-1,	-1,	-1,	-1,	1,	8,	31,	-1,	37,	12,	33,	6,	-1,	-1,	30,	5,	-1,	29,	-1,	19,	39,	-1,	-1,	-1,	-1,	34,	41|
28,	49,	-1,	6,	-1,	8,	31,	-1,	44,	9,	-1,	-1,	16,	-1,	-1,	12,	-1,	-1,	-1,	-1,	29,	17,	-1,	23,	-1,	42,	21,	14,	-1,	19,	-1,	-1,	30,	35,	-1,	-1,	-1,	-1,	32,	-1,	1,	-1,	-1,	-1,	4,	-1,	38,	43,	25|
14,	39,	30,	-1,	-1,	-1,	-1,	29,	1,	3,	-1,	-1,	-1,	-1,	-1,	8,	47,	-1,	18,	31,	9,	25,	-1,	20,	-1,	-1,	-1,	-1,	11,	32,	24,	7,	23,	40,	10,	48,	36,	-1,	17,	-1,	13,	42,	-1,	-1,	-1,	28,	-1,	6,	-1|
-1,	-1,	2,	23,	-1,	-1,	20,	-1,	28,	43,	-1,	31,	-1,	17,	39,	22,	32,	25,	27,	19,	-1,	-1,	-1,	-1,	34,	-1,	26,	33,	-1,	8,	3,	-1,	44,	-1,	-1,	-1,	10,	47,	-1,	-1,	-1,	41,	-1,	13,	-1,	-1,	-1,	-1,	-1|
-1,	-1,	3,	-1,	33,	-1,	40,	-1,	41,	-1,	-1,	-1,	13,	-1,	-1,	-1,	15,	-1,	-1,	-1,	-1,	-1,	-1,	-1,	-1,	-1,	28,	-1,	-1,	-1,	27,	-1,	-1,	-1,	29,	-1,	-1,	16,	-1,	49,	20,	-1,	-1,	8,	37,	-1,	9,	-1,	-1|
26,	1,	42,	10,	-1,	-1,	22,	15,	30,	-1,	14,	48,	33,	-1,	-1,	38,	7,	-1,	-1,	37,	-1,	41,	-1,	-1,	32,	-1,	-1,	-1,	45,	49,	9,	-1,	-1,	-1,	-1,	-1,	-1,	12,	-1,	-1,	25,	3,	-1,	27,	-1,	46,	11,	31,	-1|
37,	27,	4,	7,	21,	34,	-1,	5,	-1,	22,	33,	13,	29,	8,	-1,	1,	36,	-1,	43,	38,	-1,	42,	-1,	9,	-1,	11,	32,	-1,	-1,	40,	49,	-1,	-1,	20,	-1,	-1,	-1,	-1,	45,	3,	12,	-1,	6,	-1,	-1,	48,	25,	-1,	-1|
-1,	10,	-1,	36,	2,	-1,	-1,	-1,	42,	-1,	-1,	-1,	46,	9,	-1,	-1,	-1,	-1,	-1,	5,	19,	-1,	-1,	37,	40,	48,	-1,	-1,	-1,	-1,	-1,	-1,	-1,	22,	-1,	47,	-1,	-1,	-1,	-1,	-1,	43,	-1,	-1,	-1,	-1,	20,	41,	49|
-1,	6,	13,	-1,	38,	-1,	3,	-1,	-1,	10,	-1,	-1,	17,	41,	-1,	11,	16,	-1,	-1,	2,	46,	21,	-1,	33,	39,	45,	31,	36,	-1,	26,	-1,	-1,	47,	37,	-1,	-1,	40,	-1,	-1,	4,	-1,	-1,	-1,	5,	9,	-1,	-1,	44,	30|
-1,	-1,	-1,	-1,	-1,	32,	-1,	-1,	3,	-1,	-1,	-1,	-1,	40,	-1,	-1,	-1,	18,	49,	39,	-1,	-1,	44,	24,	-1,	-1,	-1,	19,	41,	-1,	6,	-1,	2,	7,	45,	-1,	-1,	28,	-1,	-1,	-1,	-1,	-1,	-1,	22,	10,	-1,	-1,	4|
35,	-1,	-1,	11,	30,	-1,	-1,	-1,	-1,	-1,	19,	14,	-1,	-1,	-1,	24,	-1,	21,	37,	-1,	32,	-1,	10,	-1,	20,	34,	-1,	2,	25,	-1,	-1,	44,	9,	27,	-1,	39,	-1,	-1,	-1,	42,	26,	36,	8,	45,	-1,	33,	-1,	-1,	-1|
-1,	-1,	-1,	19,	-1,	-1,	-1,	-1,	-1,	-1,	2,	-1,	-1,	35,	28,	42,	22,	44,	33,	-1,	-1,	-1,	6,	-1,	-1,	12,	17,	29,	1,	-1,	5,	-1,	8,	-1,	30,	-1,	-1,	-1,	13,	10,	46,	-1,	-1,	3,	24,	23,	32,	47,	31|
-1,	33,	-1,	-1,	1,	-1,	-1,	31,	47,	-1,	-1,	45,	26,	-1,	40,	-1,	-1,	-1,	-1,	8,	-1,	46,	7,	-1,	3,	28,	18,	41,	-1,	10,	42,	43,	-1,	39,	-1,	24,	9,	32,	-1,	-1,	5,	-1,	-1,	36,	15,	-1,	-1,	13,	35|
43,	-1,	1,	-1,	-1,	2,	42,	-1,	-1,	-1,	-1,	39,	10,	26,	-1,	32,	-1,	27,	13,	44,	28,	-1,	-1,	-1,	-1,	7,	49,	11,	-1,	-1,	40,	-1,	-1,	-1,	-1,	20,	4,	-1,	19,	-1,	-1,	-1,	46,	29,	38,	12,	-1,	-1,	-1|
-1,	48,	28,	33,	-1,	31,	-1,	45,	-1,	41,	12,	4,	20,	-1,	-1,	49,	-1,	-1,	-1,	-1,	-1,	-1,	16,	8,	-1,	-1,	-1,	-1,	21,	-1,	34,	10,	-1,	-1,	-1,	-1,	27,	-1,	9,	-1,	24,	47,	42,	-1,	-1,	18,	-1,	23,	-1|
46,	14,	10,	30,	-1,	4,	29,	22,	-1,	-1,	38,	-1,	-1,	-1,	-1,	-1,	-1,	43,	21,	35,	24,	45,	34,	17,	47,	-1,	15,	-1,	-1,	13,	25,	49,	48,	1,	-1,	-1,	32,	-1,	-1,	41,	36,	-1,	20,	-1,	26,	-1,	-1,	27,	28|
-1,	44,	24,	40,	9,	-1,	23,	-1,	-1,	14,	-1,	32,	-1,	42,	19,	39,	17,	2,	10,	-1,	38,	-1,	-1,	-1,	-1,	-1,	-1,	28,	46,	-1,	-1,	-1,	-1,	-1,	27,	29,	45,	-1,	-1,	-1,	-1,	-1,	-1,	41,	-1,	-1,	35,	-1,	-1|
-1,	47,	21,	39,	26,	-1,	41,	-1,	46,	44,	-1,	-1,	-1,	1,	34,	-1,	37,	8,	30,	6,	16,	5,	-1,	-1,	-1,	10,	25,	-1,	-1,	33,	23,	29,	45,	-1,	-1,	49,	22,	31,	18,	38,	-1,	35,	-1,	-1,	-1,	19,	4,	-1,	13|
-1,	-1,	-1,	-1,	3,	-1,	5,	43,	-1,	-1,	7,	49,	-1,	33,	-1,	-1,	-1,	26,	25,	-1,	48,	-1,	18,	-1,	27,	-1,	-1,	-1,	-1,	-1,	2,	36,	-1,	41,	47,	-1,	42,	-1,	21,	28,	39,	12,	-1,	32,	-1,	8,	-1,	-1,	10|
-1,	18,	-1,	-1,	-1,	36,	7,	27,	-1,	-1,	21,	40,	24,	-1,	14,	5,	46,	33,	9,	-1,	41,	-1,	-1,	6,	-1,	26,	29,	-1,	-1,	-1,	-1,	38,	12,	-1,	-1,	-1,	25,	13,	-1,	44,	-1,	10,	15,	-1,	45,	-1,	47,	11,	-1|
17,	-1,	22,	-1,	44,	46,	-1,	23,	-1,	-1,	-1,	-1,	-1,	-1,	-1,	29,	19,	-1,	24,	-1,	-1,	-1,	-1,	-1,	11,	8,	-1,	6,	18,	27,	41,	37,	42,	28,	-1,	-1,	26,	-1,	12,	-1,	33,	2,	4,	-1,	47,	21,	30,	20,	-1|
-1,	-1,	33,	18,	-1,	20,	-1,	-1,	7,	-1,	49,	42,	-1,	27,	11,	-1,	-1,	-1,	-1,	45,	-1,	-1,	12,	39,	-1,	13,	41,	-1,	2,	22,	31,	17,	40,	44,	38,	-1,	21,	-1,	10,	-1,	19,	-1,	36,	9,	35,	37,	43,	-1,	-1|
-1,	41,	5,	-1,	24,	-1,	-1,	-1,	-1,	-1,	-1,	-1,	34,	-1,	-1,	-1,	12,	22,	7,	32,	8,	-1,	-1,	-1,	37,	47,	-1,	-1,	-1,	6,	39,	-1,	3,	-1,	-1,	38,	23,	-1,	-1,	-1,	49,	31,	16,	10,	-1,	42,	-1,	19,	-1|
42,	8,	-1,	-1,	-1,	-1,	-1,	-1,	17,	18,	45,	-1,	2,	16,	-1,	37,	-1,	-1,	-1,	10,	43,	34,	-1,	-1,	46,	-1,	19,	21,	-1,	-1,	11,	47,	-1,	33,	25,	-1,	-1,	36,	30,	-1,	3,	29,	44,	-1,	-1,	-1,	13,	7,	-1|
47,	-1,	-1,	3,	40,	-1,	27,	-1,	-1,	-1,	-1,	5,	-1,	13,	16,	-1,	42,	46,	41,	9,	-1,	-1,	-1,	44,	18,	-1,	14,	24,	-1,	-1,	-1,	19,	-1,	21,	-1,	6,	17,	39,	48,	25,	4,	-1,	32,	23,	-1,	2,	-1,	28,	-1|
36,	-1,	37,	49,	-1,	-1,	-1,	4,	-1,	1,	6,	11,	-1,	32,	21,	-1,	-1,	23,	17,	-1,	-1,	-1,	-1,	-1,	38,	31,	-1,	45,	30,	-1,	-1,	-1,	15,	5,	-1,	18,	-1,	44,	-1,	47,	-1,	22,	29,	12,	39,	3,	41,	-1,	-1|
39,	43,	19,	4,	-1,	14,	30,	-1,	-1,	-1,	-1,	26,	47,	36,	44,	-1,	13,	3,	2,	28,	-1,	10,	-1,	-1,	29,	9,	22,	-1,	-1,	-1,	-1,	-1,	35,	-1,	-1,	32,	-1,	-1,	-1,	37,	41,	-1,	5,	6,	-1,	17,	18,	49,	45|
-1,	30,	-1,	-1,	39,	-1,	15,	32,	-1,	33,	-1,	-1,	14,	48,	-1,	-1,	-1,	28,	47,	43,	2,	18,	27,	-1,	-1,	-1,	42,	-1,	-1,	-1,	44,	-1,	-1,	16,	26,	-1,	5,	-1,	36,	46,	-1,	-1,	11,	-1,	-1,	-1,	19,	3,	-1|
16,	5,	36,	-1,	14,	-1,	-1,	-1,	21,	-1,	40,	-1,	-1,	38,	29,	41,	10,	-1,	-1,	-1,	12,	4,	13,	-1,	-1,	-1,	-1,	47,	-1,	11,	35,	27,	-1,	15,	8,	-1,	-1,	43,	-1,	-1,	-1,	33,	25,	7,	-1,	-1,	-1,	-1,	32|
4,	7,	40,	-1,	17,	-1,	-1,	-1,	31,	39,	-1,	-1,	41,	47,	-1,	-1,	33,	13,	-1,	27,	1,	6,	19,	48,	26,	-1,	20,	37,	-1,	-1,	43,	-1,	-1,	-1,	42,	-1,	18,	-1,	8,	-1,	-1,	-1,	30,	46,	-1,	14,	28,	38,	-1|
11,	-1,	46,	42,	41,	-1,	-1,	-1,	-1,	37,	27,	7,	15,	-1,	3,	-1,	-1,	5,	-1,	18,	-1,	43,	28,	-1,	-1,	-1,	-1,	-1,	-1,	24,	33,	21,	-1,	48,	6,	-1,	-1,	19,	-1,	-1,	-1,	-1,	-1,	-1,	-1,	-1,	-1,	-1,	-1|
27,	-1,	-1,	-1,	6,	21,	1,	25,	12,	-1,	3,	-1,	43,	20,	-1,	-1,	-1,	-1,	-1,	48,	-1,	11,	14,	46,	49,	-1,	39,	-1,	28,	47,	-1,	5,	-1,	29,	-1,	45,	-1,	-1,	34,	-1,	7,	-1,	-1,	18,	10,	22,	8,	33,	-1|
-1,	-1,	-1,	43,	-1,	-1,	48,	-1,	5,	17,	-1,	-1,	-1,	-1,	32,	-1,	34,	24,	38,	-1,	11,	-1,	-1,	-1,	8,	-1,	-1,	-1,	39,	30,	-1,	31,	-1,	19,	-1,	12,	-1,	-1,	-1,	9,	-1,	13,	37,	47,	42,	-1,	15,	16,	-1|
-1,	37,	-1,	31,	34,	25,	33,	-1,	-1,	-1,	1,	18,	-1,	11,	6,	-1,	21,	-1,	20,	30,	7,	-1,	23,	-1,	45,	-1,	-1,	9,	38,	41,	32,	46,	36,	-1,	22,	28,	35,	-1,	4,	-1,	10,	17,	-1,	-1,	43,	5,	-1,	29,	48|];
