sudoku-ls/benchmarks_LEQ/INST_49x49/50/inst49x49_50_52.txt
7
1
-1	-1	-1	-1	4	-1	49	28	36	-1	-1	-1	-1	23	48	-1	38	7	-1	-1	-1	9	-1	-1	2	-1	47	17	27	-1	10	-1	-1	-1	-1	-1	-1	-1	44	19	18	39	-1	31	-1	-1	-1	-1	46
24	36	-1	22	-1	-1	-1	42	32	49	48	-1	7	-1	-1	-1	-1	34	31	26	-1	-1	41	13	6	-1	-1	-1	23	-1	38	40	29	25	4	11	2	-1	-1	-1	15	-1	47	-1	-1	-1	33	45	-1
-1	31	16	9	-1	40	-1	-1	-1	4	11	22	-1	-1	-1	46	28	32	19	41	44	29	21	10	7	-1	8	-1	6	-1	47	-1	-1	17	-1	-1	13	-1	43	48	-1	-1	49	-1	34	-1	-1	25	-1
7	-1	-1	48	-1	45	-1	-1	8	30	-1	-1	-1	-1	-1	16	-1	47	39	14	-1	-1	15	-1	42	3	-1	-1	26	31	-1	-1	37	32	13	17	-1	38	33	20	40	4	24	21	11	41	-1	-1	6
15	29	-1	-1	13	26	-1	38	-1	34	-1	17	18	3	-1	33	-1	40	42	36	49	1	-1	45	30	32	24	31	7	-1	22	39	-1	-1	-1	35	16	25	6	-1	47	46	-1	-1	27	-1	10	-1	-1
19	25	27	-1	35	-1	34	-1	-1	6	26	16	-1	15	1	-1	43	-1	29	12	3	40	-1	-1	-1	-1	-1	-1	8	-1	-1	41	14	18	2	-1	49	-1	7	45	31	24	17	-1	-1	13	48	32	-1
21	3	38	41	-1	-1	10	-1	-1	-1	46	-1	40	31	9	-1	-1	4	-1	-1	13	-1	-1	11	-1	-1	36	44	-1	48	30	20	-1	49	-1	22	37	26	-1	-1	-1	-1	-1	16	-1	-1	14	-1	43
40	-1	-1	-1	12	13	-1	6	-1	-1	5	30	-1	49	-1	28	-1	36	-1	-1	10	2	-1	-1	-1	-1	-1	-1	33	-1	-1	-1	41	47	-1	-1	-1	-1	24	11	-1	-1	45	37	-1	25	3	-1	-1
44	24	45	46	47	37	36	-1	43	-1	-1	33	-1	29	38	13	-1	-1	-1	16	-1	-1	31	-1	-1	-1	-1	27	3	-1	-1	42	-1	-1	-1	-1	20	10	-1	32	22	7	28	-1	-1	-1	21	15	23
-1	-1	26	29	-1	-1	4	17	-1	12	23	-1	32	7	35	20	-1	37	-1	-1	45	44	8	28	-1	21	43	-1	-1	36	16	11	31	-1	18	42	39	-1	47	-1	38	9	-1	-1	-1	-1	-1	-1	-1
-1	-1	41	-1	-1	11	-1	34	-1	31	37	15	-1	-1	26	7	-1	-1	23	-1	-1	47	-1	38	24	-1	-1	5	-1	4	46	-1	-1	-1	19	27	12	-1	-1	1	8	-1	9	43	-1	-1	29	39	-1
34	-1	23	25	43	-1	-1	-1	22	11	28	-1	45	-1	-1	-1	-1	-1	32	-1	39	-1	30	16	1	6	13	-1	48	15	21	35	27	-1	-1	5	19	-1	-1	-1	14	-1	7	-1	20	26	36	-1	47
-1	15	-1	1	18	48	-1	8	-1	-1	47	41	42	-1	30	43	27	-1	46	-1	-1	3	11	-1	22	-1	45	39	-1	34	20	-1	26	-1	-1	-1	-1	-1	16	-1	-1	-1	-1	44	-1	-1	12	-1	-1
33	22	-1	-1	-1	49	-1	26	-1	-1	-1	44	-1	2	18	47	11	9	12	-1	-1	-1	32	34	23	-1	-1	-1	-1	29	-1	-1	38	-1	5	4	31	30	-1	36	-1	-1	-1	-1	-1	27	-1	48	-1
-1	-1	9	27	15	44	-1	10	-1	-1	32	-1	-1	25	41	-1	35	20	-1	40	30	-1	3	49	-1	-1	11	18	-1	42	-1	26	-1	-1	39	33	-1	-1	46	-1	28	-1	19	-1	-1	29	2	22	-1
-1	-1	-1	-1	-1	35	-1	40	-1	7	36	47	-1	-1	49	23	-1	14	3	21	42	-1	-1	-1	-1	-1	-1	-1	-1	28	37	12	33	-1	48	-1	-1	-1	2	-1	-1	19	39	-1	17	-1	-1	34	41
28	49	34	6	-1	8	31	-1	-1	-1	-1	20	-1	-1	2	-1	24	-1	36	13	29	-1	-1	-1	-1	42	-1	14	-1	-1	18	-1	-1	35	-1	-1	-1	11	-1	-1	1	27	-1	-1	4	-1	-1	43	-1
14	-1	30	38	-1	41	-1	29	1	-1	35	-1	-1	-1	33	8	-1	-1	-1	31	-1	-1	2	-1	43	27	44	-1	-1	-1	24	-1	-1	40	-1	-1	36	4	17	34	-1	-1	26	15	-1	-1	-1	6	-1
29	-1	2	23	16	-1	-1	24	28	-1	-1	-1	11	17	39	22	32	25	27	19	6	37	9	-1	-1	30	26	33	5	-1	3	4	-1	-1	-1	15	-1	47	-1	21	35	41	-1	13	40	49	45	14	-1
32	45	-1	47	33	17	-1	12	-1	-1	-1	-1	-1	34	-1	-1	15	48	-1	1	26	19	35	-1	-1	-1	28	-1	36	-1	27	14	-1	-1	29	-1	-1	-1	22	49	-1	6	10	8	-1	24	9	-1	18
-1	-1	-1	-1	36	-1	-1	15	-1	-1	14	48	33	-1	43	-1	-1	17	28	37	-1	41	29	47	32	-1	-1	13	45	-1	9	-1	16	-1	-1	-1	-1	12	-1	18	-1	-1	35	-1	23	46	-1	31	44
-1	-1	-1	7	-1	-1	39	5	-1	-1	33	13	-1	-1	-1	1	-1	-1	-1	-1	-1	42	-1	9	-1	-1	-1	-1	35	-1	49	-1	-1	-1	-1	-1	44	-1	45	3	12	14	6	19	-1	-1	-1	-1	26
25	10	44	-1	2	24	-1	-1	-1	32	30	21	-1	-1	-1	-1	3	45	-1	5	-1	8	-1	37	-1	-1	-1	1	14	-1	-1	23	-1	22	12	47	33	-1	-1	-1	-1	-1	34	11	28	39	20	41	49
22	-1	-1	14	-1	-1	-1	-1	27	-1	25	-1	17	41	-1	-1	-1	-1	35	-1	-1	-1	-1	33	-1	-1	-1	-1	32	26	-1	-1	47	37	-1	-1	-1	23	29	4	-1	8	-1	-1	-1	-1	-1	44	30
31	26	-1	-1	8	32	46	-1	-1	20	34	36	-1	40	47	-1	9	18	49	39	-1	-1	-1	-1	-1	-1	23	-1	-1	-1	-1	-1	-1	7	45	37	-1	28	-1	-1	-1	-1	-1	14	-1	-1	-1	-1	-1
-1	28	-1	11	30	-1	47	-1	-1	16	19	14	-1	-1	-1	24	6	21	37	7	32	22	10	5	20	-1	38	2	25	-1	4	44	9	-1	3	39	1	-1	31	42	-1	-1	-1	-1	46	33	40	-1	-1
41	40	-1	-1	-1	-1	9	39	11	-1	-1	37	4	-1	28	-1	-1	44	-1	25	-1	-1	6	-1	-1	12	17	-1	1	-1	-1	18	-1	36	30	16	48	-1	13	10	-1	-1	38	-1	-1	23	-1	47	-1
-1	-1	48	12	1	-1	-1	-1	47	-1	-1	-1	26	-1	-1	27	29	30	-1	-1	14	46	7	-1	3	28	-1	-1	19	-1	-1	43	11	39	-1	-1	-1	-1	-1	22	5	-1	-1	36	15	-1	-1	13	35
43	17	-1	-1	25	-1	-1	-1	-1	-1	-1	39	10	26	45	-1	-1	27	13	-1	-1	23	-1	-1	-1	-1	49	-1	9	5	40	8	-1	31	-1	20	-1	14	-1	-1	-1	-1	46	-1	38	-1	-1	24	36
-1	48	-1	33	22	-1	-1	-1	-1	-1	-1	-1	20	19	7	-1	-1	29	40	-1	36	38	-1	-1	44	-1	30	-1	21	37	-1	-1	39	-1	-1	46	-1	-1	-1	-1	-1	47	-1	25	-1	18	-1	23	3
-1	-1	10	-1	-1	4	-1	22	-1	5	-1	-1	6	37	-1	3	31	43	-1	35	24	-1	34	-1	-1	-1	15	-1	-1	-1	-1	-1	-1	-1	16	7	32	40	-1	41	36	11	-1	2	26	-1	-1	27	28
12	44	24	40	9	6	-1	-1	13	14	31	-1	25	42	19	39	-1	-1	10	-1	-1	-1	-1	43	36	4	-1	28	-1	18	-1	-1	7	11	27	-1	-1	-1	5	15	37	16	-1	-1	-1	34	-1	21	-1
20	47	-1	39	-1	27	41	-1	-1	-1	17	-1	-1	1	-1	15	-1	8	30	6	16	-1	-1	32	9	-1	-1	-1	42	-1	23	29	45	-1	-1	49	-1	-1	-1	-1	43	-1	14	48	7	-1	-1	40	-1
45	38	-1	15	3	-1	-1	-1	-1	29	-1	49	30	-1	-1	-1	23	26	-1	-1	-1	-1	-1	-1	-1	-1	40	-1	24	35	-1	36	-1	41	-1	34	42	-1	-1	28	39	-1	-1	32	-1	-1	-1	37	10
-1	-1	-1	34	37	-1	-1	27	-1	-1	21	40	24	28	14	-1	46	33	-1	-1	41	-1	22	-1	31	26	-1	-1	17	20	19	-1	12	4	-1	3	25	-1	1	-1	-1	10	-1	30	-1	-1	-1	11	-1
17	16	-1	32	-1	46	45	-1	48	-1	-1	10	31	39	-1	29	-1	-1	-1	-1	35	-1	-1	-1	-1	8	5	6	18	27	-1	-1	-1	-1	9	-1	26	1	-1	7	33	-1	-1	-1	47	21	30	-1	-1
23	-1	-1	-1	29	-1	25	-1	7	28	-1	42	3	27	-1	-1	-1	1	-1	45	-1	32	12	39	-1	-1	-1	-1	2	22	31	-1	40	-1	38	-1	-1	-1	-1	24	-1	-1	36	9	-1	-1	-1	8	15
9	-1	-1	-1	-1	-1	28	14	-1	-1	-1	29	34	44	4	18	-1	22	7	32	8	48	17	2	-1	47	27	-1	-1	6	-1	-1	3	26	-1	38	23	45	35	-1	49	-1	16	-1	-1	42	-1	-1	11
42	8	35	-1	31	38	6	-1	17	-1	-1	-1	-1	16	-1	-1	-1	15	14	-1	-1	-1	-1	-1	-1	-1	-1	-1	-1	-1	11	47	32	33	25	9	-1	36	30	-1	-1	-1	44	22	-1	40	13	7	-1
-1	11	-1	-1	40	-1	-1	-1	37	-1	8	-1	22	-1	-1	30	42	-1	41	9	33	7	26	44	-1	-1	14	24	-1	43	45	-1	10	21	49	-1	17	39	-1	25	-1	34	32	-1	-1	2	-1	28	-1
-1	-1	37	-1	7	-1	-1	-1	19	-1	-1	11	-1	32	21	25	-1	-1	17	34	40	28	43	-1	38	-1	33	-1	-1	14	48	-1	15	-1	-1	18	-1	-1	-1	-1	-1	22	29	12	-1	3	-1	-1	27
39	-1	19	-1	-1	14	30	-1	38	46	-1	-1	-1	36	-1	-1	-1	-1	2	-1	-1	10	-1	42	29	9	-1	23	-1	1	-1	34	35	8	-1	32	11	-1	-1	-1	41	-1	-1	-1	33	17	18	-1	-1
-1	-1	8	-1	39	12	15	-1	6	33	-1	24	14	48	-1	40	4	28	47	43	-1	-1	27	31	25	-1	-1	-1	10	-1	-1	9	1	16	26	-1	-1	-1	36	-1	23	37	11	-1	-1	-1	19	3	20
16	5	36	-1	14	28	-1	44	21	-1	-1	34	-1	38	29	-1	10	-1	-1	46	-1	-1	-1	-1	-1	-1	2	-1	37	11	35	27	-1	15	8	1	-1	-1	49	39	48	-1	-1	-1	-1	31	24	9	32
-1	-1	40	-1	17	22	-1	36	31	39	-1	-1	41	47	-1	9	33	-1	-1	-1	1	-1	-1	48	-1	5	20	37	34	-1	43	3	-1	-1	-1	2	-1	-1	-1	-1	11	-1	-1	46	-1	-1	28	-1	21
-1	13	-1	-1	41	-1	26	-1	-1	-1	-1	-1	-1	30	3	-1	49	5	8	18	-1	-1	28	-1	-1	-1	-1	-1	-1	-1	-1	-1	20	-1	6	-1	47	-1	-1	31	-1	38	-1	39	2	36	-1	-1	-1
27	-1	32	-1	-1	-1	-1	-1	12	19	-1	-1	-1	-1	37	-1	-1	35	16	-1	-1	11	14	-1	49	24	-1	-1	-1	47	-1	-1	-1	29	17	45	-1	-1	34	-1	-1	26	41	-1	10	22	-1	-1	40
-1	35	-1	-1	-1	29	48	2	5	-1	22	-1	28	4	-1	26	-1	-1	-1	-1	11	-1	-1	21	8	44	-1	3	-1	30	-1	31	-1	-1	-1	12	41	20	-1	-1	6	13	-1	47	-1	45	-1	16	-1
3	37	47	31	34	-1	-1	13	49	-1	1	18	-1	11	6	19	21	39	-1	-1	-1	12	23	40	-1	-1	16	9	38	41	-1	46	-1	2	22	-1	-1	-1	-1	14	-1	17	-1	26	43	-1	44	29	-1
49 
9 31 32 23
36 42 24 20
36 24 42 18
5 46 47 33
2 40 15 19
29 47 9 18
43 30 44 44
35 1 9 17
13 34 8 27
4 14 46 27
5 7 21 47
40 3 7 40
26 15 10 40
8 17 13 7
36 22 8 15
14 45 18 18
34 38 28 7
18 19 35 2
44 7 31 5
18 24 32 22
42 8 33 3
44 26 18 28
22 21 39 30
33 23 41 32
7 17 42 23
27 22 45 25
2 12 8 10
30 3 18 46
16 40 32 36
43 2 9 34
30 6 41 26
45 42 27 47
28 2 34 14
39 22 30 31
35 9 40 10
15 45 35 6
29 23 13 35
15 13 16 26
47 27 20 26
42 39 24 37
14 39 38 2
12 15 20 11
35 46 34 8
45 7 36 5
28 12 30 8
39 25 46 3
15 29 22 23
37 19 9 10
32 45 10 47
